
Gurobi 6.0.5 (linux64) logging started Sun Oct 22 17:22:25 2017


Gurobi 6.0.5 (linux64) logging started Sun Oct 22 17:22:46 2017


Gurobi 6.0.5 (linux64) logging started Sun Oct 22 17:25:13 2017


Gurobi 6.0.5 (linux64) logging started Sun Oct 22 17:25:38 2017


Gurobi 6.0.5 (linux64) logging started Sun Oct 22 17:28:10 2017


Gurobi 6.0.5 (linux64) logging started Sun Oct 22 17:28:38 2017


Gurobi 6.0.5 (linux64) logging started Sun Oct 22 17:31:34 2017


Gurobi 6.0.5 (linux64) logging started Sun Oct 22 17:31:57 2017


Gurobi 6.0.5 (linux64) logging started Sun Oct 22 17:35:33 2017


Gurobi 6.0.5 (linux64) logging started Sun Oct 22 17:35:53 2017


Gurobi 6.0.5 (linux64) logging started Sun Oct 22 17:40:23 2017


Gurobi 6.0.5 (linux64) logging started Sun Oct 22 17:40:43 2017


Gurobi 6.0.5 (linux64) logging started Sun Oct 22 17:46:03 2017


Gurobi 6.0.5 (linux64) logging started Sun Oct 22 17:46:29 2017


Gurobi 6.0.5 (linux64) logging started Sun Oct 22 17:52:39 2017


Gurobi 6.0.5 (linux64) logging started Sun Oct 22 17:53:04 2017


Gurobi 6.0.5 (linux64) logging started Sun Oct 22 18:00:00 2017


Gurobi 6.0.5 (linux64) logging started Sun Oct 22 18:00:31 2017


Gurobi 6.0.5 (linux64) logging started Mon Oct 23 10:17:01 2017


Gurobi 6.0.5 (linux64) logging started Mon Oct 23 10:17:23 2017


Gurobi 6.0.5 (linux64) logging started Mon Oct 23 10:33:05 2017


Gurobi 6.0.5 (linux64) logging started Mon Oct 23 10:33:32 2017


Gurobi 6.0.5 (linux64) logging started Mon Oct 23 10:49:09 2017


Gurobi 6.0.5 (linux64) logging started Mon Oct 23 10:49:36 2017


Gurobi 7.5.1 (linux64, Python) logging started Mon Oct 23 14:16:10 2017

Academic license - for non-commercial use only
Changed value of parameter LogToConsole to 0
   Prev: 1  Min: 0  Max: 1  Default: 1

Gurobi 7.5.1 (linux64, Python) logging started Mon Oct 23 14:16:33 2017

Academic license - for non-commercial use only
Changed value of parameter LogToConsole to 0
   Prev: 1  Min: 0  Max: 1  Default: 1
